; benchmark generated from python API
(set-info :status unknown)
(declare-fun S_5 () Real)
(declare-fun L_2 () Real)
(declare-fun A_2 () Real)
(declare-fun A_3 () Real)
(declare-fun A_4 () Real)
(declare-fun A_5 () Real)
(declare-fun A_1 () Real)
(declare-fun A_0 () Real)
(declare-fun S_4 () Real)
(declare-fun S_3 () Real)
(declare-fun S_2 () Real)
(declare-fun S_1 () Real)
(declare-fun S_0 () Real)
(declare-fun L_1 () Real)
(declare-fun B () Real)
(declare-fun L_0 () Real)
(declare-fun a () Real)
(assert
 (exists ((I_0 Real) (I_1 Real) (I_2 Real) (I_3 Real) (I_4 Real) (I_5 Real) (L_3 Real) (L_4 Real) (L_5 Real) (C Real) )(let ((?x105 (- A_2 L_2)))
 (let (($x148 (<= ?x105 S_5)))
 (let (($x146 (>= A_5 A_4)))
 (let (($x145 (>= A_4 A_3)))
 (let (($x144 (>= A_3 A_2)))
 (let (($x143 (>= A_2 A_1)))
 (let (($x142 (>= A_1 A_0)))
 (let (($x140 (>= S_5 S_4)))
 (let (($x137 (>= S_4 S_3)))
 (let (($x134 (>= S_3 S_2)))
 (let (($x131 (>= S_2 S_1)))
 (let (($x128 (>= S_1 S_0)))
 (let ((?x176 (- A_5 L_5)))
 (let ((?x173 (* C 1.0)))
 (let ((?x177 (+ I_4 ?x173)))
 (let (($x185 (= I_4 (ite (< (+ I_3 ?x173) (- A_4 L_4)) (+ I_3 ?x173) (- A_4 L_4)))))
 (let (($x189 (= I_3 (ite (< (+ I_2 ?x173) (- A_3 L_3)) (+ I_2 ?x173) (- A_3 L_3)))))
 (let ((?x100 (- A_1 L_1)))
 (let ((?x194 (+ I_0 ?x173)))
 (let (($x198 (= L_5 L_4)))
 (let (($x203 (=> (not (> (- (- A_5 L_4) I_5) B)) $x198)))
 (let (($x201 (> (- (- A_5 L_4) I_5) B)))
 (let (($x207 (=> $x201 (= L_5 (- (- A_5 I_5) B)))))
 (let (($x208 (= L_4 L_3)))
 (let (($x213 (=> (not (> (- (- A_4 L_3) I_4) B)) $x208)))
 (let (($x211 (> (- (- A_4 L_3) I_4) B)))
 (let (($x217 (=> $x211 (= L_4 (- (- A_4 I_4) B)))))
 (let (($x218 (= L_3 L_2)))
 (let (($x222 (=> (not (> (- (- A_3 L_2) I_3) B)) $x218)))
 (let (($x220 (> (- (- A_3 L_2) I_3) B)))
 (let (($x226 (=> $x220 (= L_3 (- (- A_3 I_3) B)))))
 (let (($x66 (= L_2 L_1)))
 (let (($x230 (=> (not (> (- (- A_2 L_1) I_2) B)) $x66)))
 (let (($x228 (> (- (- A_2 L_1) I_2) B)))
 (let (($x234 (=> $x228 (= L_2 (- (- A_2 I_2) B)))))
 (let (($x56 (= L_1 L_0)))
 (let (($x238 (=> (not (> (- (- A_1 L_0) I_1) B)) $x56)))
 (let (($x236 (> (- (- A_1 L_0) I_1) B)))
 (let (($x242 (=> $x236 (= L_1 (- (- A_1 I_1) B)))))
 (let (($x47 (= a 1.0)))
 (let ((?x43 (* 5.0 a)))
 (let (($x45 (>= B ?x43)))
 (let (($x39 (>= L_0 0.0)))
 (and $x39 (<= I_0 (- A_0 L_0)) (>= C ?x43) $x45 $x47 $x242 $x238 $x234 $x230 $x226 $x222 $x217 $x213 $x207 $x203 $x242 $x238 $x234 $x230 $x226 $x222 $x217 $x213 $x207 $x203 (= I_1 (ite (< ?x194 ?x100) ?x194 ?x100)) (= I_2 (ite (< (+ I_1 ?x173) ?x105) (+ I_1 ?x173) ?x105)) $x189 $x185 (= I_5 (ite (< ?x177 ?x176) ?x177 ?x176)) (>= S_0 (- I_0 ?x173)) (<= S_0 I_0) (>= S_1 I_0) $x128 (<= S_1 I_1) (>= S_2 I_1) $x131 (<= S_2 I_2) (>= S_3 I_2) $x134 (<= S_3 I_3) (>= S_4 I_3) $x137 (<= S_4 I_4) (>= S_5 I_4) $x140 (<= S_5 I_5) $x142 $x143 $x144 $x145 $x146 (> (- A_3 L_3) S_5) $x148)))))))))))))))))))))))))))))))))))))))))))))
 )
(check-sat)
